p tw 256 704
1 33
2 34
3 35
4 36
5 37
6 38
7 39
8 40
9 41
10 42
11 43
12 44
13 45
14 46
15 47
16 48
17 49
18 50
19 51
20 52
21 53
22 54
23 55
24 56
25 57
26 58
27 59
28 60
29 61
30 62
31 63
32 64
33 67
33 108
33 109
33 110
34 82
34 93
34 94
34 95
35 66
35 104
35 106
35 107
36 127
36 135
36 138
36 141
37 70
37 112
37 123
37 125
38 94
38 126
38 129
38 131
39 69
39 77
39 80
39 81
40 75
40 138
40 139
40 140
41 87
41 118
41 119
41 120
42 102
42 106
42 111
42 115
43 96
43 99
43 102
43 103
44 73
44 74
44 75
44 76
45 65
45 66
45 67
45 68
46 86
46 90
46 91
46 92
47 65
47 84
47 104
47 105
48 113
48 139
48 142
48 144
49 78
49 91
49 129
49 130
50 80
50 108
50 116
50 117
51 74
51 118
51 123
51 124
52 69
52 70
52 71
52 72
53 111
53 112
53 113
53 114
54 116
54 136
54 142
54 143
55 97
55 121
55 132
55 134
56 100
56 119
56 132
56 133
57 93
57 99
57 100
57 101
58 88
58 126
58 127
58 128
59 86
59 87
59 88
59 89
60 83
60 96
60 97
60 98
61 71
61 135
61 136
61 137
62 90
62 109
62 121
62 122
63 82
63 83
63 84
63 85
64 73
64 77
64 78
64 79
65 66
65 67
65 68
65 84
65 104
65 105
66 67
66 68
66 104
66 106
66 107
67 68
67 108
67 109
67 110
68 145
68 146
68 147
68 148
69 70
69 71
69 72
69 77
69 80
69 81
70 71
70 72
70 112
70 123
70 125
71 72
71 135
71 136
71 137
72 149
72 150
72 151
72 152
73 74
73 75
73 76
73 77
73 78
73 79
74 75
74 76
74 118
74 123
74 124
75 76
75 138
75 139
75 140
76 153
76 154
76 155
76 156
77 78
77 79
77 80
77 81
78 79
78 91
78 129
78 130
79 153
79 157
79 158
79 159
80 81
80 108
80 116
80 117
81 149
81 157
81 160
81 161
82 83
82 84
82 85
82 93
82 94
82 95
83 84
83 85
83 96
83 97
83 98
84 85
84 104
84 105
85 162
85 163
85 164
85 165
86 87
86 88
86 89
86 90
86 91
86 92
87 88
87 89
87 118
87 119
87 120
88 89
88 126
88 127
88 128
89 166
89 167
89 168
89 169
90 91
90 92
90 109
90 121
90 122
91 92
91 129
91 130
92 166
92 170
92 171
92 172
93 94
93 95
93 99
93 100
93 101
94 95
94 126
94 129
94 131
95 162
95 173
95 174
95 175
96 97
96 98
96 99
96 102
96 103
97 98
97 121
97 132
97 134
98 163
98 176
98 177
98 178
99 100
99 101
99 102
99 103
100 101
100 119
100 132
100 133
101 173
101 179
101 180
101 181
102 103
102 106
102 111
102 115
103 176
103 179
103 182
103 183
104 105
104 106
104 107
105 145
105 164
105 184
105 185
106 107
106 111
106 115
107 146
107 184
107 186
107 187
108 109
108 110
108 116
108 117
109 110
109 121
109 122
110 147
110 188
110 189
110 190
111 112
111 113
111 114
111 115
112 113
112 114
112 123
112 125
113 114
113 139
113 142
113 144
114 191
114 192
114 193
114 194
115 182
115 186
115 191
115 195
116 117
116 136
116 142
116 143
117 160
117 188
117 196
117 197
118 119
118 120
118 123
118 124
119 120
119 132
119 133
120 167
120 198
120 199
120 200
121 122
121 132
121 134
122 170
122 189
122 201
122 202
123 124
123 125
124 154
124 198
124 203
124 204
125 150
125 192
125 203
125 205
126 127
126 128
126 129
126 131
127 128
127 135
127 138
127 141
128 168
128 206
128 207
128 208
129 130
129 131
130 158
130 171
130 209
130 210
131 174
131 206
131 209
131 211
132 133
132 134
133 180
133 199
133 212
133 213
134 177
134 201
134 212
134 214
135 136
135 137
135 138
135 141
136 137
136 142
136 143
137 151
137 215
137 216
137 217
138 139
138 140
138 141
139 140
139 142
139 144
140 155
140 218
140 219
140 220
141 207
141 215
141 218
141 221
142 143
142 144
143 196
143 216
143 222
143 223
144 193
144 219
144 222
144 224
145 146
145 147
145 148
145 164
145 184
145 185
146 147
146 148
146 184
146 186
146 187
147 148
147 188
147 189
147 190
148 244
149 150
149 151
149 152
149 157
149 160
149 161
150 151
150 152
150 192
150 203
150 205
151 152
151 215
151 216
151 217
152 237
153 154
153 155
153 156
153 157
153 158
153 159
154 155
154 156
154 198
154 203
154 204
155 156
155 218
155 219
155 220
156 245
157 158
157 159
157 160
157 161
158 159
158 171
158 209
158 210
159 225
160 161
160 188
160 196
160 197
161 250
162 163
162 164
162 165
162 173
162 174
162 175
163 164
163 165
163 176
163 177
163 178
164 165
164 184
164 185
165 226
166 167
166 168
166 169
166 170
166 171
166 172
167 168
167 169
167 198
167 199
167 200
168 169
168 206
168 207
168 208
169 230
170 171
170 172
170 189
170 201
170 202
171 172
171 209
171 210
172 243
173 174
173 175
173 179
173 180
173 181
174 175
174 206
174 209
174 211
175 255
176 177
176 178
176 179
176 182
176 183
177 178
177 201
177 212
177 214
178 229
179 180
179 181
179 182
179 183
180 181
180 199
180 212
180 213
181 232
182 183
182 186
182 191
182 195
183 246
184 185
184 186
184 187
185 242
186 187
186 191
186 195
187 254
188 189
188 190
188 196
188 197
189 190
189 201
189 202
190 256
191 192
191 193
191 194
191 195
192 193
192 194
192 203
192 205
193 194
193 219
193 222
193 224
194 236
195 247
196 197
196 216
196 222
196 223
197 239
198 199
198 200
198 203
198 204
199 200
199 212
199 213
200 248
201 202
201 212
201 214
202 227
203 204
203 205
204 238
205 252
206 207
206 208
206 209
206 211
207 208
207 215
207 218
207 221
208 231
209 210
209 211
210 240
211 251
212 213
212 214
213 233
214 234
215 216
215 217
215 218
215 221
216 217
216 222
216 223
217 228
218 219
218 220
218 221
219 220
219 222
219 224
220 249
221 253
222 223
222 224
223 235
224 241
